BAYES
196
2 2 2 2 2 2 2 2 2 2 2 2 2 2 2 2 2 2 2 2 2 2 2 2 2 2 2 2 2 2 2 2 2 2 2 2 2 2 2 2 2 2 2 2 2 2 2 2 2 2 2 2 2 2 2 2 2 2 2 2 2 2 2 2 2 2 2 2 2 2 2 2 2 2 2 2 2 2 2 2 2 2 2 2 2 2 2 2 2 2 2 2 2 2 2 2 2 2 2 2 2 2 2 2 2 2 2 2 2 2 2 2 2 2 2 2 2 2 2 2 2 2 2 2 2 2 2 2 2 2 2 2 2 2 2 2 2 2 2 2 2 2 2 2 2 2 2 2 2 2 2 2 2 2 2 2 2 2 2 2 2 2 2 2 2 2 2 2 2 2 2 2 2 2 2 2 2 2 2 2 2 2 2 2 2 2 2 2 2 2 2 2 2 2 2 2
196
3 14 1 0
3 15 2 1
3 16 3 2
3 17 4 3
3 18 5 4
3 19 6 5
3 20 7 6
3 21 8 7
3 22 9 8
3 23 10 9
3 24 11 10
3 25 12 11
3 26 13 12
2 27 13
3 28 15 14
3 29 16 15
3 30 17 16
3 31 18 17
3 32 19 18
3 33 20 19
3 34 21 20
3 35 22 21
3 36 23 22
3 37 24 23
3 38 25 24
3 39 26 25
3 40 27 26
2 41 27
3 42 29 28
3 43 30 29
3 44 31 30
3 45 32 31
3 46 33 32
3 47 34 33
3 48 35 34
3 49 36 35
3 50 37 36
3 51 38 37
3 52 39 38
3 53 40 39
3 54 41 40
2 55 41
3 56 43 42
3 57 44 43
3 58 45 44
3 59 46 45
3 60 47 46
3 61 48 47
3 62 49 48
3 63 50 49
3 64 51 50
3 65 52 51
3 66 53 52
3 67 54 53
3 68 55 54
2 69 55
3 70 57 56
3 71 58 57
3 72 59 58
3 73 60 59
3 74 61 60
3 75 62 61
3 76 63 62
3 77 64 63
3 78 65 64
3 79 66 65
3 80 67 66
3 81 68 67
3 82 69 68
2 83 69
3 84 71 70
3 85 72 71
3 86 73 72
3 87 74 73
3 88 75 74
3 89 76 75
3 90 77 76
3 91 78 77
3 92 79 78
3 93 80 79
3 94 81 80
3 95 82 81
3 96 83 82
2 97 83
3 98 85 84
3 99 86 85
3 100 87 86
3 101 88 87
3 102 89 88
3 103 90 89
3 104 91 90
3 105 92 91
3 106 93 92
3 107 94 93
3 108 95 94
3 109 96 95
3 110 97 96
2 111 97
3 112 99 98
3 113 100 99
3 114 101 100
3 115 102 101
3 116 103 102
3 117 104 103
3 118 105 104
3 119 106 105
3 120 107 106
3 121 108 107
3 122 109 108
3 123 110 109
3 124 111 110
2 125 111
3 126 113 112
3 127 114 113
3 128 115 114
3 129 116 115
3 130 117 116
3 131 118 117
3 132 119 118
3 133 120 119
3 134 121 120
3 135 122 121
3 136 123 122
3 137 124 123
3 138 125 124
2 139 125
3 140 127 126
3 141 128 127
3 142 129 128
3 143 130 129
3 144 131 130
3 145 132 131
3 146 133 132
3 147 134 133
3 148 135 134
3 149 136 135
3 150 137 136
3 151 138 137
3 152 139 138
2 153 139
3 154 141 140
3 155 142 141
3 156 143 142
3 157 144 143
3 158 145 144
3 159 146 145
3 160 147 146
3 161 148 147
3 162 149 148
3 163 150 149
3 164 151 150
3 165 152 151
3 166 153 152
2 167 153
3 168 155 154
3 169 156 155
3 170 157 156
3 171 158 157
3 172 159 158
3 173 160 159
3 174 161 160
3 175 162 161
3 176 163 162
3 177 164 163
3 178 165 164
3 179 166 165
3 180 167 166
2 181 167
3 182 169 168
3 183 170 169
3 184 171 170
3 185 172 171
3 186 173 172
3 187 174 173
3 188 175 174
3 189 176 175
3 190 177 176
3 191 178 177
3 192 179 178
3 193 180 179
3 194 181 180
2 195 181
2 183 182
2 184 183
2 185 184
2 186 185
2 187 186
2 188 187
2 189 188
2 190 189
2 191 190
2 192 191
2 193 192
2 194 193
2 195 194
1  195
8
1 0 1 0 1 0 1 0
8
1 0 0 1 1 0 1 0
8
1 0 1 0 0 1 1 0
8
0 1 0 1 1 0 1 0
8
1 0 0 1 1 0 1 0
8
0.2395143232375118 0.7604856767624882 0.32499017114051726 0.6750098288594828 0.4689761755263895 0.5310238244736105 0.6126992353621272 0.3873007646378727
8
0.2402306002442974 0.7597693997557026 0.6562498359695681 0.343750164030432 0.3259256547377788 0.6740743452622213 0.7430373669589518 0.2569626330410482
8
1 0 1 0 0 1 1 0
8
0 1 0 1 1 0 1 0
8
1 0 1 0 0 1 0 1
8
1 0 1 0 0 1 1 0
8
1 0 0 1 0 1 0 1
8
1 0 0 1 0 1 0 1
4
1 0 0 1
8
0 1 1 0 1 0 0 1
8
1 0 0 1 0 1 1 0
8
0.593511632470197 0.406488367529803 0.4045750745554988 0.5954249254445012 0.5747431166080409 0.42525688339195905 0.2637636278824248 0.7362363721175751
8
1 0 0 1 0 1 1 0
8
1 0 1 0 1 0 1 0
8
0 1 1 0 0 1 0 1
8
0 1 0 1 1 0 1 0
8
0 1 1 0 1 0 1 0
8
0 1 0 1 0 1 0 1
8
0 1 0 1 0 1 1 0
8
1 0 0 1 0 1 0 1
8
0 1 1 0 1 0 1 0
8
0 1 1 0 0 1 1 0
4
1 0 1 0
8
0 1 0 1 1 0 1 0
8
1 0 0 1 1 0 1 0
8
0 1 1 0 1 0 1 0
8
1 0 1 0 0 1 0 1
8
1 0 1 0 1 0 1 0
8
1 0 1 0 1 0 0 1
8
0.688696930033486 0.31130306996651397 0.5828162433167142 0.4171837566832857 0.6094625414503192 0.39053745854968086 0.8752149925359103 0.12478500746408971
8
0 1 0 1 1 0 1 0
8
1 0 0 1 1 0 0 1
8
0 1 1 0 1 0 0 1
8
0.5404472719924451 0.4595527280075549 0.5984771128448838 0.4015228871551161 0.3907255037760252 0.6092744962239748 0.2995855644566499 0.7004144355433501
8
0 1 1 0 1 0 1 0
8
1 0 0 1 0 1 0 1
4
0 1 1 0
8
1 0 0 1 0 1 1 0
8
1 0 1 0 0 1 1 0
8
0 1 0 1 0 1 1 0
8
0 1 0 1 1 0 1 0
8
1 0 1 0 0 1 0 1
8
1 0 0 1 1 0 1 0
8
1 0 0 1 0 1 0 1
8
0 1 1 0 1 0 1 0
8
0 1 0 1 1 0 1 0
8
0 1 1 0 0 1 0 1
8
1 0 1 0 0 1 0 1
8
0 1 0 1 0 1 1 0
8
0 1 0 1 0 1 1 0
4
0.42666211717572605 0.5733378828242741 0.889350163594403 0.11064983640559702
8
1 0 1 0 1 0 0 1
8
0 1 0 1 0 1 1 0
8
0 1 0 1 0 1 1 0
8
0.25579168667445085 0.7442083133255492 0.9073337914853469 0.09266620851465307 0.5075414735536952 0.4924585264463049 0.901777248584246 0.09822275141575386
8
0 1 1 0 0 1 0 1
8
1 0 1 0 1 0 0 1
8
1 0 0 1 1 0 1 0
8
1 0 1 0 0 1 0 1
8
1 0 0 1 0 1 0 1
8
0 1 0 1 1 0 1 0
8
0 1 1 0 0 1 0 1
8
1 0 0 1 0 1 0 1
8
0.5411755854563841 0.4588244145436159 0.47184900434917126 0.5281509956508287 0.025324827721455227 0.9746751722785447 0.5447379061341051 0.4552620938658949
4
0 1 0 1
8
0 1 1 0 1 0 0 1
8
1 0 0 1 1 0 0 1
8
0 1 0 1 0 1 0 1
8
1 0 1 0 1 0 0 1
8
0.42764165757898664 0.5723583424210132 0.015013778456173075 0.984986221543827 0.049739396464549224 0.9502606035354508 0.433951454229082 0.566048545770918
8
1 0 1 0 0 1 0 1
8
1 0 0 1 1 0 1 0
8
1 0 0 1 0 1 0 1
8
1 0 0 1 1 0 0 1
8
0 1 1 0 0 1 1 0
8
0 1 0 1 0 1 0 1
8
1 0 1 0 1 0 1 0
8
1 0 1 0 1 0 0 1
4
0 1 1 0
8
1 0 0 1 1 0 0 1
8
1 0 1 0 0 1 1 0
8
0 1 1 0 0 1 1 0
8
0.994140796279137 0.005859203720863012 0.26413275988631635 0.7358672401136837 0.28823457491278753 0.7117654250872125 0.6171034914905864 0.38289650850941365
8
1 0 0 1 1 0 0 1
8
1 0 0 1 1 0 0 1
8
1 0 0 1 1 0 1 0
8
0.6961651453728384 0.30383485462716164 0.07186862825682021 0.9281313717431798 0.9793727178345953 0.020627282165404662 0.5390739299152726 0.46092607008472747
8
0 1 0 1 1 0 0 1
8
0 1 1 0 1 0 1 0
8
0 1 0 1 1 0 0 1
8
1 0 0 1 0 1 1 0
8
1 0 0 1 0 1 1 0
4
0 1 0 1
8
0 1 1 0 0 1 0 1
8
1 0 1 0 0 1 0 1
8
1 0 1 0 1 0 0 1
8
1 0 0 1 0 1 1 0
8
1 0 0 1 0 1 0 1
8
1 0 0 1 1 0 1 0
8
0 1 1 0 0 1 1 0
8
1 0 0 1 1 0 1 0
8
1 0 0 1 0 1 1 0
8
1 0 0 1 0 1 1 0
8
1 0 1 0 1 0 1 0
8
1 0 1 0 0 1 0 1
8
1 0 1 0 0 1 0 1
4
1 0 0 1
8
0 1 0 1 0 1 1 0
8
0 1 0 1 1 0 0 1
8
0 1 0 1 1 0 0 1
8
0 1 1 0 0 1 0 1
8
0 1 0 1 1 0 0 1
8
0 1 1 0 0 1 0 1
8
1 0 1 0 1 0 1 0
8
1 0 0 1 0 1 1 0
8
0 1 1 0 0 1 0 1
8
1 0 1 0 0 1 0 1
8
1 0 1 0 0 1 1 0
8
1 0 0 1 1 0 0 1
8
1 0 0 1 0 1 0 1
4
1 0 1 0
8
0 1 1 0 0 1 1 0
8
1 0 1 0 0 1 0 1
8
0 1 0 1 1 0 1 0
8
0 1 1 0 0 1 0 1
8
1 0 1 0 0 1 0 1
8
0 1 1 0 1 0 0 1
8
1 0 0 1 0 1 1 0
8
0.27934056035719856 0.7206594396428014 0.9236844365736554 0.07631556342634459 0.6451996744279254 0.3548003255720746 0.43567789185732875 0.5643221081426711
8
0 1 1 0 1 0 1 0
8
1 0 1 0 0 1 1 0
8
0 1 1 0 1 0 0 1
8
1 0 1 0 1 0 0 1
8
1 0 1 0 0 1 0 1
4
0 1 1 0
8
1 0 1 0 0 1 0 1
8
1 0 0 1 1 0 0 1
8
0.3314494164447512 0.6685505835552489 0.4935238436556381 0.5064761563443618 0.5262651039177043 0.47373489608229574 0.36141740255953103 0.6385825974404691
8
0 1 0 1 0 1 1 0
8
0 1 0 1 1 0 0 1
8
1 0 1 0 1 0 1 0
8
0 1 1 0 1 0 0 1
8
1 0 1 0 0 1 1 0
8
0 1 1 0 0 1 1 0
8
0 1 1 0 0 1 0 1
8
1 0 1 0 0 1 1 0
8
1 0 0 1 0 1 0 1
8
1 0 1 0 1 0 0 1
4
0 1 0 1
8
1 0 1 0 0 1 1 0
8
0 1 0 1 0 1 1 0
8
0 1 1 0 1 0 1 0
8
0 1 1 0 1 0 1 0
8
0 1 1 0 1 0 0 1
8
1 0 0 1 1 0 1 0
8
0 1 0 1 1 0 1 0
8
0.5504541846065805 0.4495458153934195 0.6515975483707185 0.3484024516292815 0.8180829705773086 0.1819170294226914 0.32712809385015357 0.6728719061498464
8
0 1 1 0 1 0 1 0
8
0 1 1 0 0 1 1 0
8
0 1 0 1 0 1 1 0
8
1 0 0 1 0 1 1 0
8
0 1 1 0 0 1 1 0
4
1 0 1 0
8
0 1 1 0 1 0 1 0
8
0.48128145510083975 0.5187185448991604 0.005051892037557775 0.9949481079624423 0.9176538926345253 0.0823461073654746 0.416008387484946 0.583991612515054
8
1 0 0 1 1 0 1 0
8
1 0 0 1 0 1 1 0
8
0 1 1 0 1 0 0 1
8
1 0 0 1 1 0 0 1
8
0 1 0 1 0 1 1 0
8
1 0 0 1 1 0 0 1
8
0.609622380150468 0.39037761984953195 0.203505431898838 0.796494568101162 0.4632793022837148 0.5367206977162852 0.6004397229585273 0.3995602770414727
8
1 0 1 0 0 1 1 0
8
0 1 1 0 0 1 1 0
8
1 0 1 0 1 0 1 0
8
1 0 0 1 0 1 1 0
4
0.14000475836090154 0.8599952416390985 0.4581924517946238 0.5418075482053761
4
0 1 0 1
4
0.22312915902815894 0.7768708409718411 0.5803730061844333 0.41962699381556673
4
0.6519607056674906 0.34803929433250935 0.8278785841638464 0.17212141583615356
4
0 1 0 1
4
0 1 1 0
4
1 0 0 1
4
1 0 1 0
4
0.835074329287374 0.16492567071262598 0.5545975743973275 0.4454024256026724
4
1 0 0 1
4
0 1 1 0
4
1 0 1 0
4
0 1 1 0
4
0 1 1 0
2
1 0
